(set-logic QF_S)
(declare-fun var0 () String)
(declare-fun var1 () Int)
(declare-fun var2 () Bool)
(declare-fun var3 () String)
(declare-fun var4 () Int)
(declare-fun var5 () Bool)
(declare-fun var6 () String)
(declare-fun var7 () Int)
(declare-fun var8 () Bool)
(assert (>= (str.indexof var3 var3 (str.len (str.replace var6 ">M*TLJ`tQ-" var0))) (str.indexof var0 var0 (str.len (str.replace "luUS9?e)P|" var3 var0)))))
(assert (not (not var5)))
(assert (str.in.re (str.at var6 8) (re.* re.allchar)))
(assert (>= var1 var7))
(check-sat)